! wB97X-D4 def2-QZVPP TightSCF NumFreq EnGrad
%freq
  Temp 298.15
end
* xyz 0 1
  O       0.0000000000      0.0000000000     -1.1600000000
  C       0.0000000000      0.0000000000      0.0000000000
  S       0.0000000000      0.0000000000      1.5600000000
*
